p cnf 965 2478
51 -698 -699 0
-51 698 0
-51 699 0
52 -51 -700 0
-52 51 0
-52 700 0
53 -5 -4 0
-53 5 0
-53 4 0
54 -53 -701 0
-54 53 0
-54 701 0
55 -702 -703 0
-55 702 0
-55 703 0
56 -704 -705 0
-56 704 0
-56 705 0
57 -56 -9 0
-57 56 0
-57 9 0
58 -706 -55 0
-58 706 0
-58 55 0
59 -707 -10 0
-59 707 0
-59 10 0
60 -59 -12 0
-60 59 0
-60 12 0
61 -708 -58 0
-61 708 0
-61 58 0
62 -709 -10 0
-62 709 0
-62 10 0
63 -62 -710 0
-63 62 0
-63 710 0
64 -711 -61 0
-64 711 0
-64 61 0
65 -712 -14 0
-65 712 0
-65 14 0
66 -65 -9 0
-66 65 0
-66 9 0
67 -713 -64 0
-67 713 0
-67 64 0
68 -17 -714 0
-68 17 0
-68 714 0
69 -68 -6 0
-69 68 0
-69 6 0
70 -715 -67 0
-70 715 0
-70 67 0
71 -18 -699 0
-71 18 0
-71 699 0
72 -71 -12 0
-72 71 0
-72 12 0
73 -716 -70 0
-73 716 0
-73 70 0
74 -20 -717 0
-74 20 0
-74 717 0
75 -74 -21 0
-75 74 0
-75 21 0
76 -718 -73 0
-76 718 0
-76 73 0
77 -22 -13 0
-77 22 0
-77 13 0
78 -77 -719 0
-78 77 0
-78 719 0
79 -720 -76 0
-79 720 0
-79 76 0
80 -24 -705 0
-80 24 0
-80 705 0
81 -80 -721 0
-81 80 0
-81 721 0
82 -722 -79 0
-82 722 0
-82 79 0
83 -723 -724 0
-83 723 0
-83 724 0
84 -83 -20 0
-84 83 0
-84 20 0
85 -725 -82 0
-85 725 0
-85 82 0
86 -726 -10 0
-86 726 0
-86 10 0
87 -86 -27 0
-87 86 0
-87 27 0
88 -727 -85 0
-88 727 0
-88 85 0
89 -728 -28 0
-89 728 0
-89 28 0
90 -89 -719 0
-90 89 0
-90 719 0
91 -729 -88 0
-91 729 0
-91 88 0
92 -8 -699 0
-92 8 0
-92 699 0
93 -92 -730 0
-93 92 0
-93 730 0
94 -731 -91 0
-94 731 0
-94 91 0
95 -732 -717 0
-95 732 0
-95 717 0
96 -95 -20 0
-96 95 0
-96 20 0
97 -733 -94 0
-97 733 0
-97 94 0
98 -31 -734 0
-98 31 0
-98 734 0
99 -98 -21 0
-99 98 0
-99 21 0
100 -735 -97 0
-100 735 0
-100 97 0
101 -728 -10 0
-101 728 0
-101 10 0
102 -101 -11 0
-102 101 0
-102 11 0
103 -736 -100 0
-103 736 0
-103 100 0
104 -737 -724 0
-104 737 0
-104 724 0
105 -104 -23 0
-105 104 0
-105 23 0
106 -738 -103 0
-106 738 0
-106 103 0
107 -34 -33 0
-107 34 0
-107 33 0
108 -107 -35 0
-108 107 0
-108 35 0
109 -739 -106 0
-109 739 0
-109 106 0
110 -701 -3 0
-110 701 0
-110 3 0
111 -110 -710 0
-111 110 0
-111 710 0
112 -740 -109 0
-112 740 0
-112 109 0
113 -31 -724 0
-113 31 0
-113 724 0
114 -113 -8 0
-114 113 0
-114 8 0
115 -741 -112 0
-115 741 0
-115 112 0
116 -36 -7 0
-116 36 0
-116 7 0
117 -116 -35 0
-117 116 0
-117 35 0
118 -742 -115 0
-118 742 0
-118 115 0
119 -19 -2 0
-119 19 0
-119 2 0
120 -119 -719 0
-120 119 0
-120 719 0
121 -743 -118 0
-121 743 0
-121 118 0
122 -36 -726 0
-122 36 0
-122 726 0
123 -122 -11 0
-123 122 0
-123 11 0
124 -744 -121 0
-124 744 0
-124 121 0
125 -745 -701 0
-125 745 0
-125 701 0
126 -125 -35 0
-126 125 0
-126 35 0
127 -746 -124 0
-127 746 0
-127 124 0
128 -36 -747 0
-128 36 0
-128 747 0
129 -128 -748 0
-129 128 0
-129 748 0
130 -749 -127 0
-130 749 0
-130 127 0
131 -40 -39 0
-131 40 0
-131 39 0
132 -131 -41 0
-132 131 0
-132 41 0
133 -750 -130 0
-133 750 0
-133 130 0
134 -22 -6 0
-134 22 0
-134 6 0
135 -134 -21 0
-135 134 0
-135 21 0
136 -751 -133 0
-136 751 0
-136 133 0
137 -752 -726 0
-137 752 0
-137 726 0
138 -137 -42 0
-138 137 0
-138 42 0
139 -753 -136 0
-139 753 0
-139 136 0
140 -754 -43 0
-140 754 0
-140 43 0
141 -140 -30 0
-141 140 0
-141 30 0
142 -755 -139 0
-142 755 0
-142 139 0
143 -756 -20 0
-143 756 0
-143 20 0
144 -143 -700 0
-144 143 0
-144 700 0
145 -757 -142 0
-145 757 0
-145 142 0
146 -730 -712 0
-146 730 0
-146 712 0
147 -146 -719 0
-147 146 0
-147 719 0
148 -758 -145 0
-148 758 0
-148 145 0
149 -33 -734 0
-149 33 0
-149 734 0
150 -149 -712 0
-150 149 0
-150 712 0
151 -759 -148 0
-151 759 0
-151 148 0
152 -46 -760 0
-152 46 0
-152 760 0
153 -152 -22 0
-153 152 0
-153 22 0
154 -761 -151 0
-154 761 0
-154 151 0
155 -732 -21 0
-155 732 0
-155 21 0
156 -155 -762 0
-156 155 0
-156 762 0
157 -763 -154 0
-157 763 0
-157 154 0
158 -47 -764 0
-158 47 0
-158 764 0
159 -158 -23 0
-159 158 0
-159 23 0
160 -765 -157 0
-160 765 0
-160 157 0
161 -27 -9 0
-161 27 0
-161 9 0
162 -161 -38 0
-162 161 0
-162 38 0
163 -766 -160 0
-163 766 0
-163 160 0
164 -734 -5 0
-164 734 0
-164 5 0
165 -164 -719 0
-165 164 0
-165 719 0
166 -767 -163 0
-166 767 0
-166 163 0
167 -30 -12 0
-167 30 0
-167 12 0
168 -167 -762 0
-168 167 0
-168 762 0
169 -768 -166 0
-169 768 0
-169 166 0
170 -764 -721 0
-170 764 0
-170 721 0
171 -170 -29 0
-171 170 0
-171 29 0
172 -769 -169 0
-172 769 0
-172 169 0
173 -48 -770 0
-173 48 0
-173 770 0
174 -173 -709 0
-174 173 0
-174 709 0
175 -771 -172 0
-175 771 0
-175 172 0
176 -772 -705 0
-176 772 0
-176 705 0
177 -176 -21 0
-177 176 0
-177 21 0
178 -773 -175 0
-178 773 0
-178 175 0
179 -756 -774 0
-179 756 0
-179 774 0
180 -179 -709 0
-180 179 0
-180 709 0
181 -775 -178 0
-181 775 0
-181 178 0
182 -33 -776 0
-182 33 0
-182 776 0
183 -182 -3 0
-183 182 0
-183 3 0
184 -777 -181 0
-184 777 0
-184 181 0
185 -14 -776 0
-185 14 0
-185 776 0
186 -185 -35 0
-186 185 0
-186 35 0
187 -778 -184 0
-187 778 0
-187 184 0
188 -707 -8 0
-188 707 0
-188 8 0
189 -188 -756 0
-189 188 0
-189 756 0
190 -779 -187 0
-190 779 0
-190 187 0
191 -780 -752 0
-191 780 0
-191 752 0
192 -191 -707 0
-192 191 0
-192 707 0
193 -781 -190 0
-193 781 0
-193 190 0
194 -782 -39 0
-194 782 0
-194 39 0
195 -194 -783 0
-195 194 0
-195 783 0
196 -784 -193 0
-196 784 0
-196 193 0
197 -26 -714 0
-197 26 0
-197 714 0
198 -197 -728 0
-198 197 0
-198 728 0
199 -785 -196 0
-199 785 0
-199 196 0
200 -774 -11 0
-200 774 0
-200 11 0
201 -200 -13 0
-201 200 0
-201 13 0
202 -786 -199 0
-202 786 0
-202 199 0
203 -24 -747 0
-203 24 0
-203 747 0
204 -203 -30 0
-204 203 0
-204 30 0
205 -787 -202 0
-205 787 0
-205 202 0
206 -37 -12 0
-206 37 0
-206 12 0
207 -206 -762 0
-207 206 0
-207 762 0
208 -788 -205 0
-208 788 0
-208 205 0
209 -776 -1 0
-209 776 0
-209 1 0
210 -209 -37 0
-210 209 0
-210 37 0
211 -789 -208 0
-211 789 0
-211 208 0
212 -707 -747 0
-212 707 0
-212 747 0
213 -212 -13 0
-213 212 0
-213 13 0
214 -790 -211 0
-214 790 0
-214 211 0
215 -791 -717 0
-215 791 0
-215 717 0
216 -215 -45 0
-216 215 0
-216 45 0
217 -792 -214 0
-217 792 0
-217 214 0
218 -793 -33 0
-218 793 0
-218 33 0
219 -218 -737 0
-219 218 0
-219 737 0
220 -794 -217 0
-220 794 0
-220 217 0
221 -724 -776 0
-221 724 0
-221 776 0
222 -221 -772 0
-222 221 0
-222 772 0
223 -795 -220 0
-223 795 0
-223 220 0
224 -730 -705 0
-224 730 0
-224 705 0
225 -224 -50 0
-225 224 0
-225 50 0
226 -796 -223 0
-226 796 0
-226 223 0
227 -714 -1 0
-227 714 0
-227 1 0
228 -227 -728 0
-228 227 0
-228 728 0
229 -797 -226 0
-229 797 0
-229 226 0
230 -17 -1 0
-230 17 0
-230 1 0
231 -230 -20 0
-231 230 0
-231 20 0
232 -798 -229 0
-232 798 0
-232 229 0
233 -734 -760 0
-233 734 0
-233 760 0
234 -233 -22 0
-234 233 0
-234 22 0
235 -799 -232 0
-235 799 0
-235 232 0
236 -46 -16 0
-236 46 0
-236 16 0
237 -236 -49 0
-237 236 0
-237 49 0
238 -800 -235 0
-238 800 0
-238 235 0
239 -48 -32 0
-239 48 0
-239 32 0
240 -239 -730 0
-240 239 0
-240 730 0
241 -801 -238 0
-241 801 0
-241 238 0
242 -34 -764 0
-242 34 0
-242 764 0
243 -242 -802 0
-243 242 0
-243 802 0
244 -803 -241 0
-244 803 0
-244 241 0
245 -39 -28 0
-245 39 0
-245 28 0
246 -245 -793 0
-246 245 0
-246 793 0
247 -804 -244 0
-247 804 0
-247 244 0
248 -782 -8 0
-248 782 0
-248 8 0
249 -248 -13 0
-249 248 0
-249 13 0
250 -805 -247 0
-250 805 0
-250 247 0
251 -40 -707 0
-251 40 0
-251 707 0
252 -251 -719 0
-252 251 0
-252 719 0
253 -806 -250 0
-253 806 0
-253 250 0
254 -14 -760 0
-254 14 0
-254 760 0
255 -254 -745 0
-255 254 0
-255 745 0
256 -807 -253 0
-256 807 0
-256 253 0
257 -724 -22 0
-257 724 0
-257 22 0
258 -257 -42 0
-258 257 0
-258 42 0
259 -808 -256 0
-259 808 0
-259 256 0
260 -10 -1 0
-260 10 0
-260 1 0
261 -260 -704 0
-261 260 0
-261 704 0
262 -809 -259 0
-262 809 0
-262 259 0
263 -774 -709 0
-263 774 0
-263 709 0
264 -263 -21 0
-264 263 0
-264 21 0
265 -810 -262 0
-265 810 0
-265 262 0
266 -44 -717 0
-266 44 0
-266 717 0
267 -266 -2 0
-267 266 0
-267 2 0
268 -811 -265 0
-268 811 0
-268 265 0
269 -15 -726 0
-269 15 0
-269 726 0
270 -269 -3 0
-270 269 0
-270 3 0
271 -812 -268 0
-271 812 0
-271 268 0
272 -791 -27 0
-272 791 0
-272 27 0
273 -272 -813 0
-273 272 0
-273 813 0
274 -814 -271 0
-274 814 0
-274 271 0
275 -44 -13 0
-275 44 0
-275 13 0
276 -275 -38 0
-276 275 0
-276 38 0
277 -815 -274 0
-277 815 0
-277 274 0
278 -780 -40 0
-278 780 0
-278 40 0
279 -278 -712 0
-279 278 0
-279 712 0
280 -816 -277 0
-280 816 0
-280 277 0
281 -19 -17 0
-281 19 0
-281 17 0
282 -281 -756 0
-282 281 0
-282 756 0
283 -817 -280 0
-283 817 0
-283 280 0
284 -764 -734 0
-284 764 0
-284 734 0
285 -284 -818 0
-285 284 0
-285 818 0
286 -819 -283 0
-286 819 0
-286 283 0
287 -14 -8 0
-287 14 0
-287 8 0
288 -287 -11 0
-288 287 0
-288 11 0
289 -820 -286 0
-289 820 0
-289 286 0
290 -770 -1 0
-290 770 0
-290 1 0
291 -290 -776 0
-291 290 0
-291 776 0
292 -821 -289 0
-292 821 0
-292 289 0
293 -36 -760 0
-293 36 0
-293 760 0
294 -293 -748 0
-294 293 0
-294 748 0
295 -822 -292 0
-295 822 0
-295 292 0
296 -32 -760 0
-296 32 0
-296 760 0
297 -296 -707 0
-297 296 0
-297 707 0
298 -823 -295 0
-298 823 0
-298 295 0
299 -754 -31 0
-299 754 0
-299 31 0
300 -299 -29 0
-300 299 0
-300 29 0
301 -824 -298 0
-301 824 0
-301 298 0
302 -721 -5 0
-302 721 0
-302 5 0
303 -302 -756 0
-303 302 0
-303 756 0
304 -825 -301 0
-304 825 0
-304 301 0
305 -826 -17 0
-305 826 0
-305 17 0
306 -305 -27 0
-306 305 0
-306 27 0
307 -827 -304 0
-307 827 0
-307 304 0
308 -39 -6 0
-308 39 0
-308 6 0
309 -308 -710 0
-309 308 0
-309 710 0
310 -828 -307 0
-310 828 0
-310 307 0
311 -780 -714 0
-311 780 0
-311 714 0
312 -311 -17 0
-312 311 0
-312 17 0
313 -829 -310 0
-313 829 0
-313 310 0
314 -28 -24 0
-314 28 0
-314 24 0
315 -314 -40 0
-315 314 0
-315 40 0
316 -830 -313 0
-316 830 0
-316 313 0
317 -754 -14 0
-317 754 0
-317 14 0
318 -317 -723 0
-318 317 0
-318 723 0
319 -831 -316 0
-319 831 0
-319 316 0
320 -47 -737 0
-320 47 0
-320 737 0
321 -320 -813 0
-321 320 0
-321 813 0
322 -832 -319 0
-322 832 0
-322 319 0
323 -83 -793 0
-323 83 0
-323 793 0
324 -833 -322 0
-324 833 0
-324 322 0
325 -826 -34 0
-325 826 0
-325 34 0
326 -325 -26 0
-326 325 0
-326 26 0
327 -834 -324 0
-327 834 0
-327 324 0
328 -728 -14 0
-328 728 0
-328 14 0
329 -328 -50 0
-329 328 0
-329 50 0
330 -835 -327 0
-330 835 0
-330 327 0
331 -43 -8 0
-331 43 0
-331 8 0
332 -331 -30 0
-332 331 0
-332 30 0
333 -836 -330 0
-333 836 0
-333 330 0
334 -724 -24 0
-334 724 0
-334 24 0
335 -334 -32 0
-335 334 0
-335 32 0
336 -837 -333 0
-336 837 0
-336 333 0
337 -26 -783 0
-337 26 0
-337 783 0
338 -337 -762 0
-338 337 0
-338 762 0
339 -838 -336 0
-339 838 0
-339 336 0
340 -818 -10 0
-340 818 0
-340 10 0
341 -340 -8 0
-341 340 0
-341 8 0
342 -839 -339 0
-342 839 0
-342 339 0
343 -26 -6 0
-343 26 0
-343 6 0
344 -343 -12 0
-344 343 0
-344 12 0
345 -840 -342 0
-345 840 0
-345 342 0
346 -15 -9 0
-346 15 0
-346 9 0
347 -346 -700 0
-347 346 0
-347 700 0
348 -841 -345 0
-348 841 0
-348 345 0
349 -48 -28 0
-349 48 0
-349 28 0
350 -349 -23 0
-350 349 0
-350 23 0
351 -842 -348 0
-351 842 0
-351 348 0
352 -31 -4 0
-352 31 0
-352 4 0
353 -352 -48 0
-353 352 0
-353 48 0
354 -843 -351 0
-354 843 0
-354 351 0
355 -730 -717 0
-355 730 0
-355 717 0
356 -355 -38 0
-356 355 0
-356 38 0
357 -844 -354 0
-357 844 0
-357 354 0
358 -776 -760 0
-358 776 0
-358 760 0
359 -358 -27 0
-359 358 0
-359 27 0
360 -845 -357 0
-360 845 0
-360 357 0
361 -16 -7 0
-361 16 0
-361 7 0
362 -361 -846 0
-362 361 0
-362 846 0
363 -847 -360 0
-363 847 0
-363 360 0
364 -721 -9 0
-364 721 0
-364 9 0
365 -364 -802 0
-365 364 0
-365 802 0
366 -848 -363 0
-366 848 0
-366 363 0
367 -726 -7 0
-367 726 0
-367 7 0
368 -367 -730 0
-368 367 0
-368 730 0
369 -849 -366 0
-369 849 0
-369 366 0
370 -756 -43 0
-370 756 0
-370 43 0
371 -370 -813 0
-371 370 0
-371 813 0
372 -850 -369 0
-372 850 0
-372 369 0
373 -728 -8 0
-373 728 0
-373 8 0
374 -373 -23 0
-374 373 0
-374 23 0
375 -851 -372 0
-375 851 0
-375 372 0
376 -20 -12 0
-376 20 0
-376 12 0
377 -376 -783 0
-377 376 0
-377 783 0
378 -852 -375 0
-378 852 0
-378 375 0
379 -19 -10 0
-379 19 0
-379 10 0
380 -379 -853 0
-380 379 0
-380 853 0
381 -854 -378 0
-381 854 0
-381 378 0
382 -764 -7 0
-382 764 0
-382 7 0
383 -382 -17 0
-383 382 0
-383 17 0
384 -855 -381 0
-384 855 0
-384 381 0
385 -43 -728 0
-385 43 0
-385 728 0
386 -385 -2 0
-386 385 0
-386 2 0
387 -856 -384 0
-387 856 0
-387 384 0
388 -774 -730 0
-388 774 0
-388 730 0
389 -388 -707 0
-389 388 0
-389 707 0
390 -857 -387 0
-390 857 0
-390 387 0
391 -723 -776 0
-391 723 0
-391 776 0
392 -391 -11 0
-392 391 0
-392 11 0
393 -858 -390 0
-393 858 0
-393 390 0
394 -701 -760 0
-394 701 0
-394 760 0
395 -394 -27 0
-395 394 0
-395 27 0
396 -859 -393 0
-396 859 0
-396 393 0
397 -47 -36 0
-397 47 0
-397 36 0
398 -397 -35 0
-398 397 0
-398 35 0
399 -860 -396 0
-399 860 0
-399 396 0
400 -47 -40 0
-400 47 0
-400 40 0
401 -400 -21 0
-401 400 0
-401 21 0
402 -861 -399 0
-402 861 0
-402 399 0
403 -35 -737 0
-403 35 0
-403 737 0
404 -403 -704 0
-404 403 0
-404 704 0
405 -862 -402 0
-405 862 0
-405 402 0
406 -723 -2 0
-406 723 0
-406 2 0
407 -406 -730 0
-407 406 0
-407 730 0
408 -863 -405 0
-408 863 0
-408 405 0
409 -49 -9 0
-409 49 0
-409 9 0
410 -409 -813 0
-410 409 0
-410 813 0
411 -864 -408 0
-411 864 0
-411 408 0
412 -16 -700 0
-412 16 0
-412 700 0
413 -412 -13 0
-413 412 0
-413 13 0
414 -865 -411 0
-414 865 0
-414 411 0
415 -866 -8 0
-415 866 0
-415 8 0
416 -415 -707 0
-416 415 0
-416 707 0
417 -867 -414 0
-417 867 0
-417 414 0
418 -49 -10 0
-418 49 0
-418 10 0
419 -418 -719 0
-419 418 0
-419 719 0
420 -868 -417 0
-420 868 0
-420 417 0
421 -13 -747 0
-421 13 0
-421 747 0
422 -421 -783 0
-422 421 0
-422 783 0
423 -869 -420 0
-423 869 0
-423 420 0
424 -22 -721 0
-424 22 0
-424 721 0
425 -424 -48 0
-425 424 0
-425 48 0
426 -870 -423 0
-426 870 0
-426 423 0
427 -21 -11 0
-427 21 0
-427 11 0
428 -427 -719 0
-428 427 0
-428 719 0
429 -871 -426 0
-429 871 0
-429 426 0
430 -25 -3 0
-430 25 0
-430 3 0
431 -430 -709 0
-431 430 0
-431 709 0
432 -872 -429 0
-432 872 0
-432 429 0
433 -782 -699 0
-433 782 0
-433 699 0
434 -433 -719 0
-434 433 0
-434 719 0
435 -873 -432 0
-435 873 0
-435 432 0
436 -774 -714 0
-436 774 0
-436 714 0
437 -436 -23 0
-437 436 0
-437 23 0
438 -874 -435 0
-438 874 0
-438 435 0
439 -29 -16 0
-439 29 0
-439 16 0
440 -439 -802 0
-440 439 0
-440 802 0
441 -875 -438 0
-441 875 0
-441 438 0
442 -32 -726 0
-442 32 0
-442 726 0
443 -442 -876 0
-443 442 0
-443 876 0
444 -877 -441 0
-444 877 0
-444 441 0
445 -764 -723 0
-445 764 0
-445 723 0
446 -445 -728 0
-446 445 0
-446 728 0
447 -878 -444 0
-447 878 0
-447 444 0
448 -782 -714 0
-448 782 0
-448 714 0
449 -448 -15 0
-449 448 0
-449 15 0
450 -879 -447 0
-450 879 0
-450 447 0
451 -16 -726 0
-451 16 0
-451 726 0
452 -451 -47 0
-452 451 0
-452 47 0
453 -880 -450 0
-453 880 0
-453 450 0
454 -818 -18 0
-454 818 0
-454 18 0
455 -454 -3 0
-455 454 0
-455 3 0
456 -881 -453 0
-456 881 0
-456 453 0
457 -882 -714 0
-457 882 0
-457 714 0
458 -457 -756 0
-458 457 0
-458 756 0
459 -883 -456 0
-459 883 0
-459 456 0
460 -818 -2 0
-460 818 0
-460 2 0
461 -460 -8 0
-461 460 0
-461 8 0
462 -884 -459 0
-462 884 0
-462 459 0
463 -876 -11 0
-463 876 0
-463 11 0
464 -463 -756 0
-464 463 0
-464 756 0
465 -885 -462 0
-465 885 0
-465 462 0
466 -19 -776 0
-466 19 0
-466 776 0
467 -466 -13 0
-467 466 0
-467 13 0
468 -886 -465 0
-468 886 0
-468 465 0
469 -35 -726 0
-469 35 0
-469 726 0
470 -469 -50 0
-470 469 0
-470 50 0
471 -887 -468 0
-471 887 0
-471 468 0
472 -47 -732 0
-472 47 0
-472 732 0
473 -472 -802 0
-473 472 0
-473 802 0
474 -888 -471 0
-474 888 0
-474 471 0
475 -13 -9 0
-475 13 0
-475 9 0
476 -475 -42 0
-476 475 0
-476 42 0
477 -889 -474 0
-477 889 0
-477 474 0
478 -846 -705 0
-478 846 0
-478 705 0
479 -478 -18 0
-479 478 0
-479 18 0
480 -890 -477 0
-480 890 0
-480 477 0
481 -46 -44 0
-481 46 0
-481 44 0
482 -481 -776 0
-482 481 0
-482 776 0
483 -891 -480 0
-483 891 0
-483 480 0
484 -714 -712 0
-484 714 0
-484 712 0
485 -484 -42 0
-485 484 0
-485 42 0
486 -892 -483 0
-486 892 0
-486 483 0
487 -724 -10 0
-487 724 0
-487 10 0
488 -487 -705 0
-488 487 0
-488 705 0
489 -893 -486 0
-489 893 0
-489 486 0
490 -782 -721 0
-490 782 0
-490 721 0
491 -490 -42 0
-491 490 0
-491 42 0
492 -894 -489 0
-492 894 0
-492 489 0
493 -221 -895 0
-493 221 0
-493 895 0
494 -896 -492 0
-494 896 0
-494 492 0
495 -818 -721 0
-495 818 0
-495 721 0
496 -495 -11 0
-496 495 0
-496 11 0
497 -897 -494 0
-497 897 0
-497 494 0
498 -707 -776 0
-498 707 0
-498 776 0
499 -498 -3 0
-499 498 0
-499 3 0
500 -898 -497 0
-500 898 0
-500 497 0
501 -752 -737 0
-501 752 0
-501 737 0
502 -501 -15 0
-502 501 0
-502 15 0
503 -899 -500 0
-503 899 0
-503 500 0
504 -48 -20 0
-504 48 0
-504 20 0
505 -504 -27 0
-505 504 0
-505 27 0
506 -900 -503 0
-506 900 0
-506 503 0
507 -457 -31 0
-507 457 0
-507 31 0
508 -901 -506 0
-508 901 0
-508 506 0
509 -705 -5 0
-509 705 0
-509 5 0
510 -509 -756 0
-510 509 0
-510 756 0
511 -902 -508 0
-511 902 0
-511 508 0
512 -730 -19 0
-512 730 0
-512 19 0
513 -512 -42 0
-513 512 0
-513 42 0
514 -903 -511 0
-514 903 0
-514 511 0
515 -780 -818 0
-515 780 0
-515 818 0
516 -515 -700 0
-516 515 0
-516 700 0
517 -904 -514 0
-517 904 0
-517 514 0
518 -43 -747 0
-518 43 0
-518 747 0
519 -518 -21 0
-519 518 0
-519 21 0
520 -905 -517 0
-520 905 0
-520 517 0
521 -6 -1 0
-521 6 0
-521 1 0
522 -521 -728 0
-522 521 0
-522 728 0
523 -906 -520 0
-523 906 0
-523 520 0
524 -756 -31 0
-524 756 0
-524 31 0
525 -524 -748 0
-525 524 0
-525 748 0
526 -907 -523 0
-526 907 0
-526 523 0
527 -826 -734 0
-527 826 0
-527 734 0
528 -527 -36 0
-528 527 0
-528 36 0
529 -908 -526 0
-529 908 0
-529 526 0
530 -48 -11 0
-530 48 0
-530 11 0
531 -530 -700 0
-531 530 0
-531 700 0
532 -909 -529 0
-532 909 0
-532 529 0
533 -782 -760 0
-533 782 0
-533 760 0
534 -533 -41 0
-534 533 0
-534 41 0
535 -910 -532 0
-535 910 0
-535 532 0
536 -793 -15 0
-536 793 0
-536 15 0
537 -536 -45 0
-537 536 0
-537 45 0
538 -911 -535 0
-538 911 0
-538 535 0
539 -19 -707 0
-539 19 0
-539 707 0
540 -539 -762 0
-540 539 0
-540 762 0
541 -912 -538 0
-541 912 0
-541 538 0
542 -24 -714 0
-542 24 0
-542 714 0
543 -542 -37 0
-543 542 0
-543 37 0
544 -913 -541 0
-544 913 0
-544 541 0
545 -721 -7 0
-545 721 0
-545 7 0
546 -545 -35 0
-546 545 0
-546 35 0
547 -914 -544 0
-547 914 0
-547 544 0
548 -20 -13 0
-548 20 0
-548 13 0
549 -548 -38 0
-549 548 0
-549 38 0
550 -915 -547 0
-550 915 0
-550 547 0
551 -6 -776 0
-551 6 0
-551 776 0
552 -551 -793 0
-552 551 0
-552 793 0
553 -916 -550 0
-553 916 0
-553 550 0
554 -754 -40 0
-554 754 0
-554 40 0
555 -554 -895 0
-555 554 0
-555 895 0
556 -917 -553 0
-556 917 0
-556 553 0
557 -44 -31 0
-557 44 0
-557 31 0
558 -557 -802 0
-558 557 0
-558 802 0
559 -918 -556 0
-559 918 0
-559 556 0
560 -826 -24 0
-560 826 0
-560 24 0
561 -560 -12 0
-561 560 0
-561 12 0
562 -919 -559 0
-562 919 0
-562 559 0
563 -846 -747 0
-563 846 0
-563 747 0
564 -563 -27 0
-564 563 0
-564 27 0
565 -920 -562 0
-565 920 0
-565 562 0
566 -19 -704 0
-566 19 0
-566 704 0
567 -566 -27 0
-567 566 0
-567 27 0
568 -921 -565 0
-568 921 0
-568 565 0
569 -18 -747 0
-569 18 0
-569 747 0
570 -569 -783 0
-570 569 0
-570 783 0
571 -922 -568 0
-571 922 0
-571 568 0
572 -40 -772 0
-572 40 0
-572 772 0
573 -572 -783 0
-573 572 0
-573 783 0
574 -923 -571 0
-574 923 0
-574 571 0
575 -866 -16 0
-575 866 0
-575 16 0
576 -575 -719 0
-576 575 0
-576 719 0
577 -924 -574 0
-577 924 0
-577 574 0
578 -26 -4 0
-578 26 0
-578 4 0
579 -578 -41 0
-579 578 0
-579 41 0
580 -925 -577 0
-580 925 0
-580 577 0
581 -239 -700 0
-581 239 0
-581 700 0
582 -926 -580 0
-582 926 0
-582 580 0
583 -46 -28 0
-583 46 0
-583 28 0
584 -583 -20 0
-584 583 0
-584 20 0
585 -927 -582 0
-585 927 0
-585 582 0
586 -44 -723 0
-586 44 0
-586 723 0
587 -586 -48 0
-587 586 0
-587 48 0
588 -928 -585 0
-588 928 0
-588 585 0
589 -9 -2 0
-589 9 0
-589 2 0
590 -589 -802 0
-590 589 0
-590 802 0
591 -929 -588 0
-591 929 0
-591 588 0
592 -895 -698 0
-592 895 0
-592 698 0
593 -592 -23 0
-593 592 0
-593 23 0
594 -930 -591 0
-594 930 0
-594 591 0
595 -34 -17 0
-595 34 0
-595 17 0
596 -595 -723 0
-596 595 0
-596 723 0
597 -931 -594 0
-597 931 0
-597 594 0
598 -41 -32 0
-598 41 0
-598 32 0
599 -598 -895 0
-599 598 0
-599 895 0
600 -932 -597 0
-600 932 0
-600 597 0
601 -39 -15 0
-601 39 0
-601 15 0
602 -601 -730 0
-602 601 0
-602 730 0
603 -933 -600 0
-603 933 0
-603 600 0
604 -47 -25 0
-604 47 0
-604 25 0
605 -604 -802 0
-605 604 0
-605 802 0
606 -934 -603 0
-606 934 0
-606 603 0
607 -895 -15 0
-607 895 0
-607 15 0
608 -607 -3 0
-608 607 0
-608 3 0
609 -935 -606 0
-609 935 0
-609 606 0
610 -774 -772 0
-610 774 0
-610 772 0
611 -610 -745 0
-611 610 0
-611 745 0
612 -936 -609 0
-612 936 0
-612 609 0
613 -876 -726 0
-613 876 0
-613 726 0
614 -613 -813 0
-614 613 0
-614 813 0
615 -937 -612 0
-615 937 0
-615 612 0
616 -18 -760 0
-616 18 0
-616 760 0
617 -616 -23 0
-617 616 0
-617 23 0
618 -938 -615 0
-618 938 0
-618 615 0
619 -770 -882 0
-619 770 0
-619 882 0
620 -619 -29 0
-620 619 0
-620 29 0
621 -939 -618 0
-621 939 0
-621 618 0
622 -780 -28 0
-622 780 0
-622 28 0
623 -622 -760 0
-623 622 0
-623 760 0
624 -940 -621 0
-624 940 0
-624 621 0
625 -18 -726 0
-625 18 0
-625 726 0
626 -625 -48 0
-626 625 0
-626 48 0
627 -941 -624 0
-627 941 0
-627 624 0
628 -780 -6 0
-628 780 0
-628 6 0
629 -628 -11 0
-629 628 0
-629 11 0
630 -942 -627 0
-630 942 0
-630 627 0
631 -772 -4 0
-631 772 0
-631 4 0
632 -631 -783 0
-632 631 0
-632 783 0
633 -943 -630 0
-633 943 0
-633 630 0
634 -14 -10 0
-634 14 0
-634 10 0
635 -634 -35 0
-635 634 0
-635 35 0
636 -944 -633 0
-636 944 0
-636 633 0
637 -29 -714 0
-637 29 0
-637 714 0
638 -637 -38 0
-638 637 0
-638 38 0
639 -945 -636 0
-639 945 0
-639 636 0
640 -756 -776 0
-640 756 0
-640 776 0
641 -640 -38 0
-641 640 0
-641 38 0
642 -946 -639 0
-642 946 0
-642 639 0
643 -382 -45 0
-643 382 0
-643 45 0
644 -947 -642 0
-644 947 0
-644 642 0
645 -14 -698 0
-645 14 0
-645 698 0
646 -645 -762 0
-646 645 0
-646 762 0
647 -948 -644 0
-647 948 0
-647 644 0
648 -752 -26 0
-648 752 0
-648 26 0
649 -648 -701 0
-649 648 0
-649 701 0
650 -949 -647 0
-650 949 0
-650 647 0
651 -754 -701 0
-651 754 0
-651 701 0
652 -651 -719 0
-652 651 0
-652 719 0
653 -950 -650 0
-653 950 0
-653 650 0
654 -866 -776 0
-654 866 0
-654 776 0
655 -654 -762 0
-655 654 0
-655 762 0
656 -951 -653 0
-656 951 0
-656 653 0
657 -717 -17 0
-657 717 0
-657 17 0
658 -657 -762 0
-658 657 0
-658 762 0
659 -952 -656 0
-659 952 0
-659 656 0
660 -36 -705 0
-660 36 0
-660 705 0
661 -660 -22 0
-661 660 0
-661 22 0
662 -953 -659 0
-662 953 0
-662 659 0
663 -47 -726 0
-663 47 0
-663 726 0
664 -663 -18 0
-664 663 0
-664 18 0
665 -954 -662 0
-665 954 0
-665 662 0
666 -35 -705 0
-666 35 0
-666 705 0
667 -666 -756 0
-667 666 0
-667 756 0
668 -955 -665 0
-668 955 0
-668 665 0
669 -846 -4 0
-669 846 0
-669 4 0
670 -669 -18 0
-670 669 0
-670 18 0
671 -956 -668 0
-671 956 0
-671 668 0
672 -30 -712 0
-672 30 0
-672 712 0
673 -672 -27 0
-673 672 0
-673 27 0
674 -957 -671 0
-674 957 0
-674 671 0
675 -583 -726 0
-675 583 0
-675 726 0
676 -958 -674 0
-676 958 0
-676 674 0
677 -762 -40 0
-677 762 0
-677 40 0
678 -677 -23 0
-678 677 0
-678 23 0
679 -959 -676 0
-679 959 0
-679 676 0
680 -752 -22 0
-680 752 0
-680 22 0
681 -680 -730 0
-681 680 0
-681 730 0
682 -960 -679 0
-682 960 0
-682 679 0
683 -32 -866 0
-683 32 0
-683 866 0
684 -683 -48 0
-684 683 0
-684 48 0
685 -961 -682 0
-685 961 0
-685 682 0
686 -826 -32 0
-686 826 0
-686 32 0
687 -686 -13 0
-687 686 0
-687 13 0
688 -962 -685 0
-688 962 0
-688 685 0
689 -876 -732 0
-689 876 0
-689 732 0
690 -689 -9 0
-690 689 0
-690 9 0
691 -963 -688 0
-691 963 0
-691 688 0
692 -32 -24 0
-692 32 0
-692 24 0
693 -692 -747 0
-693 692 0
-693 747 0
694 -964 -691 0
-694 964 0
-694 691 0
695 -782 -44 0
-695 782 0
-695 44 0
696 -695 -12 0
-696 695 0
-696 12 0
697 -965 -694 0
-697 965 0
-697 694 0
-698 -2 0
698 2 0
-699 -1 0
699 1 0
-700 -3 0
700 3 0
-701 -6 0
701 6 0
-702 -54 0
702 54 0
-703 -52 0
703 52 0
-704 -8 0
704 8 0
-705 -7 0
705 7 0
-706 -57 0
706 57 0
-707 -11 0
707 11 0
-708 -60 0
708 60 0
-709 -13 0
709 13 0
-710 -12 0
710 12 0
-711 -63 0
711 63 0
-712 -15 0
712 15 0
-713 -66 0
713 66 0
-714 -16 0
714 16 0
-715 -69 0
715 69 0
-716 -72 0
716 72 0
-717 -19 0
717 19 0
-718 -75 0
718 75 0
-719 -23 0
719 23 0
-720 -78 0
720 78 0
-721 -18 0
721 18 0
-722 -81 0
722 81 0
-723 -26 0
723 26 0
-724 -25 0
724 25 0
-725 -84 0
725 84 0
-726 -14 0
726 14 0
-727 -87 0
727 87 0
-728 -29 0
728 29 0
-729 -90 0
729 90 0
-730 -30 0
730 30 0
-731 -93 0
731 93 0
-732 -28 0
732 28 0
-733 -96 0
733 96 0
-734 -10 0
734 10 0
-735 -99 0
735 99 0
-736 -102 0
736 102 0
-737 -32 0
737 32 0
-738 -105 0
738 105 0
-739 -108 0
739 108 0
-740 -111 0
740 111 0
-741 -114 0
741 114 0
-742 -117 0
742 117 0
-743 -120 0
743 120 0
-744 -123 0
744 123 0
-745 -37 0
745 37 0
-746 -126 0
746 126 0
-747 -9 0
747 9 0
-748 -38 0
748 38 0
-749 -129 0
749 129 0
-750 -132 0
750 132 0
-751 -135 0
751 135 0
-752 -34 0
752 34 0
-753 -138 0
753 138 0
-754 -44 0
754 44 0
-755 -141 0
755 141 0
-756 -45 0
756 45 0
-757 -144 0
757 144 0
-758 -147 0
758 147 0
-759 -150 0
759 150 0
-760 -4 0
760 4 0
-761 -153 0
761 153 0
-762 -42 0
762 42 0
-763 -156 0
763 156 0
-764 -33 0
764 33 0
-765 -159 0
765 159 0
-766 -162 0
766 162 0
-767 -165 0
767 165 0
-768 -168 0
768 168 0
-769 -171 0
769 171 0
-770 -36 0
770 36 0
-771 -174 0
771 174 0
-772 -24 0
772 24 0
-773 -177 0
773 177 0
-774 -39 0
774 39 0
-775 -180 0
775 180 0
-776 -5 0
776 5 0
-777 -183 0
777 183 0
-778 -186 0
778 186 0
-779 -189 0
779 189 0
-780 -43 0
780 43 0
-781 -192 0
781 192 0
-782 -46 0
782 46 0
-783 -21 0
783 21 0
-784 -195 0
784 195 0
-785 -198 0
785 198 0
-786 -201 0
786 201 0
-787 -204 0
787 204 0
-788 -207 0
788 207 0
-789 -210 0
789 210 0
-790 -213 0
790 213 0
-791 -49 0
791 49 0
-792 -216 0
792 216 0
-793 -40 0
793 40 0
-794 -219 0
794 219 0
-795 -222 0
795 222 0
-796 -225 0
796 225 0
-797 -228 0
797 228 0
-798 -231 0
798 231 0
-799 -234 0
799 234 0
-800 -237 0
800 237 0
-801 -240 0
801 240 0
-802 -27 0
802 27 0
-803 -243 0
803 243 0
-804 -246 0
804 246 0
-805 -249 0
805 249 0
-806 -252 0
806 252 0
-807 -255 0
807 255 0
-808 -258 0
808 258 0
-809 -261 0
809 261 0
-810 -264 0
810 264 0
-811 -267 0
811 267 0
-812 -270 0
812 270 0
-813 -50 0
813 50 0
-814 -273 0
814 273 0
-815 -276 0
815 276 0
-816 -279 0
816 279 0
-817 -282 0
817 282 0
-818 -41 0
818 41 0
-819 -285 0
819 285 0
-820 -288 0
820 288 0
-821 -291 0
821 291 0
-822 -294 0
822 294 0
-823 -297 0
823 297 0
-824 -300 0
824 300 0
-825 -303 0
825 303 0
-826 -47 0
826 47 0
-827 -306 0
827 306 0
-828 -309 0
828 309 0
-829 -312 0
829 312 0
-830 -315 0
830 315 0
-831 -318 0
831 318 0
-832 -321 0
832 321 0
-833 -323 0
833 323 0
-834 -326 0
834 326 0
-835 -329 0
835 329 0
-836 -332 0
836 332 0
-837 -335 0
837 335 0
-838 -338 0
838 338 0
-839 -341 0
839 341 0
-840 -344 0
840 344 0
-841 -347 0
841 347 0
-842 -350 0
842 350 0
-843 -353 0
843 353 0
-844 -356 0
844 356 0
-845 -359 0
845 359 0
-846 -22 0
846 22 0
-847 -362 0
847 362 0
-848 -365 0
848 365 0
-849 -368 0
849 368 0
-850 -371 0
850 371 0
-851 -374 0
851 374 0
-852 -377 0
852 377 0
-853 -20 0
853 20 0
-854 -380 0
854 380 0
-855 -383 0
855 383 0
-856 -386 0
856 386 0
-857 -389 0
857 389 0
-858 -392 0
858 392 0
-859 -395 0
859 395 0
-860 -398 0
860 398 0
-861 -401 0
861 401 0
-862 -404 0
862 404 0
-863 -407 0
863 407 0
-864 -410 0
864 410 0
-865 -413 0
865 413 0
-866 -31 0
866 31 0
-867 -416 0
867 416 0
-868 -419 0
868 419 0
-869 -422 0
869 422 0
-870 -425 0
870 425 0
-871 -428 0
871 428 0
-872 -431 0
872 431 0
-873 -434 0
873 434 0
-874 -437 0
874 437 0
-875 -440 0
875 440 0
-876 -48 0
876 48 0
-877 -443 0
877 443 0
-878 -446 0
878 446 0
-879 -449 0
879 449 0
-880 -452 0
880 452 0
-881 -455 0
881 455 0
-882 -17 0
882 17 0
-883 -458 0
883 458 0
-884 -461 0
884 461 0
-885 -464 0
885 464 0
-886 -467 0
886 467 0
-887 -470 0
887 470 0
-888 -473 0
888 473 0
-889 -476 0
889 476 0
-890 -479 0
890 479 0
-891 -482 0
891 482 0
-892 -485 0
892 485 0
-893 -488 0
893 488 0
-894 -491 0
894 491 0
-895 -35 0
895 35 0
-896 -493 0
896 493 0
-897 -496 0
897 496 0
-898 -499 0
898 499 0
-899 -502 0
899 502 0
-900 -505 0
900 505 0
-901 -507 0
901 507 0
-902 -510 0
902 510 0
-903 -513 0
903 513 0
-904 -516 0
904 516 0
-905 -519 0
905 519 0
-906 -522 0
906 522 0
-907 -525 0
907 525 0
-908 -528 0
908 528 0
-909 -531 0
909 531 0
-910 -534 0
910 534 0
-911 -537 0
911 537 0
-912 -540 0
912 540 0
-913 -543 0
913 543 0
-914 -546 0
914 546 0
-915 -549 0
915 549 0
-916 -552 0
916 552 0
-917 -555 0
917 555 0
-918 -558 0
918 558 0
-919 -561 0
919 561 0
-920 -564 0
920 564 0
-921 -567 0
921 567 0
-922 -570 0
922 570 0
-923 -573 0
923 573 0
-924 -576 0
924 576 0
-925 -579 0
925 579 0
-926 -581 0
926 581 0
-927 -584 0
927 584 0
-928 -587 0
928 587 0
-929 -590 0
929 590 0
-930 -593 0
930 593 0
-931 -596 0
931 596 0
-932 -599 0
932 599 0
-933 -602 0
933 602 0
-934 -605 0
934 605 0
-935 -608 0
935 608 0
-936 -611 0
936 611 0
-937 -614 0
937 614 0
-938 -617 0
938 617 0
-939 -620 0
939 620 0
-940 -623 0
940 623 0
-941 -626 0
941 626 0
-942 -629 0
942 629 0
-943 -632 0
943 632 0
-944 -635 0
944 635 0
-945 -638 0
945 638 0
-946 -641 0
946 641 0
-947 -643 0
947 643 0
-948 -646 0
948 646 0
-949 -649 0
949 649 0
-950 -652 0
950 652 0
-951 -655 0
951 655 0
-952 -658 0
952 658 0
-953 -661 0
953 661 0
-954 -664 0
954 664 0
-955 -667 0
955 667 0
-956 -670 0
956 670 0
-957 -673 0
957 673 0
-958 -675 0
958 675 0
-959 -678 0
959 678 0
-960 -681 0
960 681 0
-961 -684 0
961 684 0
-962 -687 0
962 687 0
-963 -690 0
963 690 0
-964 -693 0
964 693 0
-965 -696 0
965 696 0
697 0
